100 10
20 100
69 35
61 80
10 99
58 65
79 12
74 70
48 13
59 91
84 80
83 46
37 92
19 10
39 59
91 42
85 61
51 86
13 15
44 86
31 30
19 43
33 37
17 99
92 6
84 28
46 98
87 98
68 84
97 87
5 26
97 41
93 33
3 74
91 1
39 40
81 87
15 55
73 15
88 90
82 49
2 43
76 96
46 36
27 75
62 9
1 25
36 49
91 91
87 10
50 7
78 6
28 44
82 45
4 30
70 14
6 3
70 90
13 8
56 4
4 18
66 59
13 14
88 98
75 31
53 68
18 37
64 25
25 57
95 34
71 37
73 14
85 97
5 85
66 41
75 52
31 4
13 52
55 97
25 81
14 96
61 99
71 16
99 91
90 51
74 33
73 12
44 89
16 39
63 61
38 2
11 78
28 73
27 64
42 29
47 3
88 77
18 17
2 78
50 60
19 2
415 488
500 579
508 621
683 782
600 732
632 707
508 584
382 463
591 724
662 782
